&inputpp
outdir='/path/to/workdir'
prefix='pwscf'
seedname='TiS2_HSE'
/